36512 38248 
36161 38753 
35888 39130 
36623 38096 
35596 39345 
36045 38796 
35125 39635 
35418 39442 
35210 39596 
35710 39137 
36699 37771 
36653 37777 
36735 37664 
37075 37293 
37023 37419 
37029 37299 
37180 37085 
37134 37091 
36719 37700 
36587 38247 
36881 37641 
36314 38624 
36482 38455 
36026 38869 
35691 39150 
35983 38962 
35654 39344 
35462 39431 
33379 40889 
32033 41483 
32216 41446 
33284 40901 
34149 40450 
34525 40239 
34006 40535 
32385 41434 
32645 41306 
32864 41199 
31985 41559 
33565 40863 
34273 40270 
34285 40258 
34756 39968 
35330 39591 
34237 40381 
33941 40579 
33901 40640 
34584 40103 
35065 39699 
34835 39940 
34901 39925 
34707 40096 
34975 39805 
34136 40451 
33617 40747 
33760 40662 
33077 40979 
32789 41209 
33449 40881 
31912 41594 
32647 41264 
31721 41599 
33047 41139 
31125 41714 
32421 41330 
33241 40968 
